s td 192 9 219
b 1 23 149 191
b 2 56 105 118
b 3 105 183
b 4 53 159 189
b 5 43 63 192
b 6 21 66 211 213
b 7 20 43 63
b 8 14 18 20 63
b 9 113 114 175
b 10 73 123 143 214
b 11 108 152 205
b 12 31 148 153
b 13 109 168 214
b 14 62 146 183
b 15 7 139 188 219
b 16 53 189 202
b 17 149 157 191
b 18 104 133 149 157
b 19 30 199 219
b 20 48 211 213
b 21 48 53 213
b 22 73 109 214
b 23 116 144 204 216
b 24 2 26 50 163
b 25 7 73 139 219
b 26 14 18 20 72
b 27 18 20 72 171
b 28 20 55 72 171
b 29 1 55 72 171
b 30 1 72 85 179
b 31 1 179 181
b 32 111 179 181
b 33 100 111 181
b 34 6 100 111
b 35 6 111 177
b 36 6 158 177
b 37 6 147 158 210
b 38 22 95 101 146
b 39 95 101 146 218
b 40 30 57 195 219
b 41 51 126 148 195
b 42 48 53 110 202
b 43 61 77 96 182
b 44 3 12 42 54 73 125 141 160 190
b 45 12 42 54 73 124 125 141 151 190
b 46 12 73 124 125 141 151 174 190 218
b 47 12 73 83 125 141 151 174 203 218
b 48 12 73 74 83 125 141 174 203 218
b 49 12 73 74 83 128 141 174 203 218
b 50 73 74 83 128 163 174 203 212 218
b 51 73 74 83 121 163 174 203 212 218
b 52 73 83 95 121 163 174 203 212 218
b 53 73 78 95 106 121 129 163 212 218
b 54 35 48 73 78 95 106 129 218
b 55 9 35 48 78 95 106 129 145
b 56 9 78 106 130 145
b 57 9 78 130 145 210
b 58 4 9 130 145 210
b 59 9 78 106 130 162
b 60 9 35 48 95 106 107 129 145
b 61 9 35 48 95 107 129 145 166
b 62 9 35 48 95 107 145 165 166
b 63 35 48 95 145 165 166 206 217
b 64 35 48 95 155 166 186 206 217
b 65 35 84 95 155 166 186 206
b 66 35 84 95 166 186 196 206
b 67 84 95 166 186 196 206 208
b 68 84 95 150 186 196 206 208
b 69 84 150 186 196 201 206 208
b 70 84 135 150 186 196 201 208
b 71 58 84 135 150 186 196 201
b 72 8 58 84 135 186 201
b 73 8 58 59 84 186
b 74 8 17 58 59
b 75 8 59 186 194
b 76 8 58 122 135 186 201
b 77 8 58 122 127 135 201
b 78 8 47 58 122 127
b 79 90 122 127 201
b 80 8 122 161 186
b 81 58 93 150 196
b 82 112 135 201 208
b 83 95 150 167 196 208
b 84 91 95 150 167 196
b 85 16 91 150 196
b 86 82 91 150 167
b 87 91 92 95 167
b 88 35 76 95 196
b 89 48 155 164 186 206 217
b 90 48 155 164 186 205
b 91 48 108 155 205
b 92 49 145 165 166 206 217
b 93 49 98 145 165 217
b 94 89 98 145 217
b 95 45 107 129 166
b 96 9 106 107 129 137
b 97 35 48 73 87 218
b 98 35 87 97 218
b 99 41 78 79 106 121 129 163 197 212
b 100 41 78 79 94 106 129 163 197 212
b 101 10 94 163 197 212
b 102 41 78 79 94 106 129 163 185 197
b 103 41 50 78 79 94 106 129 163 185
b 104 13 41 50 78 79 106 129 156 185
b 105 13 41 50 68 78 106 129 156 185
b 106 13 29 50 68 78 106 129 156 185
b 107 13 29 68 78 106 129 131 156
b 108 13 28 29 68 78 106 131 156
b 109 13 28 29 61 68 78 131 156
b 110 13 28 29 61 68 131 156 170
b 111 13 29 61 68 70 131 156 170
b 112 13 29 61 68 70 75 156 170
b 113 13 29 61 68 70 75 140 170
b 114 15 29 61 68 70 75 140 170
b 115 15 61 70 75 81 140 170 184
b 116 61 70 75 81 170 173 184
b 117 24 70 75 173 184
b 118 27 70 170 173
b 119 61 81 96 170 173 184
b 120 61 96 170 173 182
b 121 34 96 173 182
b 122 81 96 169 173 184
b 123 15 75 80 81 140 184
b 124 38 75 80 140 184
b 125 15 80 81 140 184 204
b 126 52 80 81 184 204
b 127 15 80 140 187 204
b 128 15 80 116 187 204
b 129 15 29 46 68 140
b 130 13 68 75 140 193
b 131 13 32 70 75 156
b 132 40 70 131 156
b 133 29 50 68 142 185
b 134 13 41 68 154 185
b 135 13 36 41 79 156
b 136 26 50 94 163 185
b 137 41 94 185 197 200
b 138 41 79 113 121 197 212
b 139 41 79 113 175 197
b 140 113 121 197 198 212
b 141 62 83 95 121 174 203 218
b 142 62 95 146 174 218
b 143 74 83 121 138 212
b 144 44 74 128 163 212
b 145 12 39 74 128 141
b 146 74 83 125 141 176
b 147 19 151 174 203
b 148 83 125 132 151 203
b 149 69 124 174 190 218
b 150 69 124 172 190
b 151 42 54 88 124 125 151 190
b 152 33 42 88 125 151
b 153 3 12 42 54 73 86 125 141 160
b 154 3 12 31 42 54 73 86 141 160
b 155 3 31 42 54 71 73 86 160
b 156 3 31 71 73 103 160
b 157 3 11 71 103 160
b 158 31 71 73 103 160 195
b 159 73 103 160 195 219
b 160 57 103 160 195 219
b 161 73 139 160 219
b 162 31 71 103 126 195
b 163 31 126 148 195
b 164 3 31 42 54 71 86 117
b 165 31 42 71 86 117 178
b 166 31 37 86 178
b 167 42 86 99 117 178
b 168 12 31 67 86 141
b 169 25 42 86 125 141
b 170 3 54 160 190 207
b 171 3 102 160 207
b 172 104 133 134 157
b 173 60 133 134 157
b 174 48 110 180 202
b 175 5 48 180 202
b 176 5 48 108 180
b 177 48 108 155 180
b 178 60 65 134 157
b 179 60 65 119 120 157
b 180 65 109 119 120 157
b 181 109 119 120 157 209
b 182 109 120 157 209
b 183 73 109 157 209
b 184 48 73 157 209
b 185 48 73 87 209
b 186 64 109 120 209
b 187 60 119 157 215
b 188 136 164 186 205
b 189 80 116 144 204
b 190 130 147 158 210
b 191 115 130 158 210
b 192 78 115 130 210
1 17
2 3
3 14
4 16
5 7
6 20
7 8
8 26
9 139
10 22
11 91
12 163
13 22
14 142
15 25
16 42
17 18
18 172
19 40
20 21
21 42
22 183
23 189
24 136
25 161
26 27
27 28
28 29
29 30
30 31
31 32
32 33
33 34
34 35
35 36
36 37
37 190
38 39
39 142
40 160
41 163
42 174
43 120
44 45
44 153
44 170
45 46
45 151
46 47
46 149
47 48
47 147
47 148
48 49
48 146
49 50
49 145
50 51
50 144
51 52
51 143
52 53
52 141
53 54
53 99
54 55
54 97
55 56
55 60
56 57
56 59
57 192
57 58
60 61
60 96
61 62
61 95
62 63
63 64
63 92
64 65
64 89
65 66
66 67
66 88
67 68
68 69
68 83
69 70
70 71
70 82
71 72
71 81
72 73
72 76
73 74
73 75
76 77
76 80
77 78
77 79
83 84
84 85
84 86
84 87
89 90
90 188
90 91
91 177
92 93
93 94
97 185
97 98
99 100
99 138
100 101
100 102
102 103
102 137
103 104
103 136
104 105
104 135
105 106
105 134
106 107
106 133
107 108
108 109
109 110
110 111
111 112
111 132
112 113
112 131
113 114
113 130
114 115
114 129
115 116
115 123
116 117
116 118
116 119
119 120
119 122
120 121
123 124
123 125
125 126
125 127
127 128
128 189
138 139
138 140
141 142
149 150
151 152
153 154
153 169
154 155
154 168
155 156
155 164
156 157
156 158
158 159
158 162
159 160
159 161
162 163
164 165
165 166
165 167
170 171
172 173
173 178
174 175
175 176
176 177
178 179
179 187
179 180
180 181
181 182
182 186
182 183
183 184
184 185
190 191
191 192
